Route #1: 11 47 119 1
Route #2: 67 42 59 60 44
Route #3: 72 113 96 5 6 57
Route #4: 36 129 53 49 29
Route #5: 75 64 127 130 93 132 107 133
Route #6: 81 102 17 37 40 134 100 71
Route #7: 85 24 125 25 112 22 137 114
Route #8: 35 58 13 97 31 80 41 92 78 120 73
Route #9: 76 111 105 82 106 77 43 46 55 18 21
Route #10: 122 138 63 28 103 136 83 68 116 128 101 14 135 33 86 104 89 91
Route #11: 70 62 4 23 9 26 108 94 69 38 131 34 115 27 123 50 74 10
Route #12: 98 56 54 79 121 20 45 110 109 88 124
Route #13: 16 32 118 95 126 52 87 99 2 117 12 90 66 19 61 48 65 15 8 39 51 84 30 7 3
Cost: 16803.06
